PROBLEM NAME: 	pcb442-TTP
KNAPSACK DATA TYPE: uncorrelated, similar weights
DIMENSION:	442
NUMBER OF ITEMS: 	441
CAPACITY OF KNAPSACK: 	201371
MIN SPEED: 	0.1
MAX SPEED: 	1
RENTING RATIO: 	1.06
EDGE_WEIGHT_TYPE:	CEIL_2D
NODE_COORD_SECTION	(INDEX, X, Y): 
1	2.00000e+02	4.00000e+02
2	2.00000e+02	5.00000e+02
3	2.00000e+02	6.00000e+02
4	2.00000e+02	7.00000e+02
5	2.00000e+02	8.00000e+02
6	2.00000e+02	9.00000e+02
7	2.00000e+02	1.00000e+03
8	2.00000e+02	1.10000e+03
9	2.00000e+02	1.20000e+03
10	2.00000e+02	1.30000e+03
11	2.00000e+02	1.40000e+03
12	2.00000e+02	1.50000e+03
13	2.00000e+02	1.60000e+03
14	2.00000e+02	1.70000e+03
15	2.00000e+02	1.80000e+03
16	2.00000e+02	1.90000e+03
17	2.00000e+02	2.00000e+03
18	2.00000e+02	2.10000e+03
19	2.00000e+02	2.20000e+03
20	2.00000e+02	2.30000e+03
21	2.00000e+02	2.40000e+03
22	2.00000e+02	2.50000e+03
23	2.00000e+02	2.60000e+03
24	2.00000e+02	2.70000e+03
25	2.00000e+02	2.80000e+03
26	2.00000e+02	2.90000e+03
27	2.00000e+02	3.00000e+03
28	2.00000e+02	3.10000e+03
29	2.00000e+02	3.20000e+03
30	2.00000e+02	3.30000e+03
31	2.00000e+02	3.40000e+03
32	2.00000e+02	3.50000e+03
33	2.00000e+02	3.60000e+03
34	3.00000e+02	4.00000e+02
35	3.00000e+02	5.00000e+02
36	3.00000e+02	6.00000e+02
37	3.00000e+02	7.00000e+02
38	3.00000e+02	8.00000e+02
39	3.00000e+02	9.00000e+02
40	3.00000e+02	1.00000e+03
41	3.00000e+02	1.10000e+03
42	3.00000e+02	1.20000e+03
43	3.00000e+02	1.30000e+03
44	3.00000e+02	1.40000e+03
45	3.00000e+02	1.50000e+03
46	3.00000e+02	1.60000e+03
47	3.00000e+02	1.70000e+03
48	3.00000e+02	1.80000e+03
49	3.00000e+02	1.90000e+03
50	3.00000e+02	2.00000e+03
51	3.00000e+02	2.10000e+03
52	3.00000e+02	2.20000e+03
53	3.00000e+02	2.30000e+03
54	3.00000e+02	2.40000e+03
55	3.00000e+02	2.50000e+03
56	3.00000e+02	2.60000e+03
57	3.00000e+02	2.70000e+03
58	3.00000e+02	2.80000e+03
59	3.00000e+02	2.90000e+03
60	3.00000e+02	3.00000e+03
61	3.00000e+02	3.10000e+03
62	3.00000e+02	3.20000e+03
63	3.00000e+02	3.30000e+03
64	3.00000e+02	3.40000e+03
65	3.00000e+02	3.50000e+03
66	4.00000e+02	4.00000e+02
67	4.00000e+02	5.00000e+02
68	4.00000e+02	6.00000e+02
69	4.00000e+02	7.00000e+02
70	4.00000e+02	8.00000e+02
71	4.00000e+02	9.00000e+02
72	4.00000e+02	1.00000e+03
73	4.00000e+02	1.10000e+03
74	4.00000e+02	1.20000e+03
75	4.00000e+02	1.30000e+03
76	4.00000e+02	1.40000e+03
77	4.00000e+02	1.50000e+03
78	4.00000e+02	1.60000e+03
79	4.00000e+02	1.70000e+03
80	4.00000e+02	1.80000e+03
81	4.00000e+02	1.90000e+03
82	4.00000e+02	2.00000e+03
83	4.00000e+02	2.10000e+03
84	4.00000e+02	2.20000e+03
85	4.00000e+02	2.30000e+03
86	4.00000e+02	2.40000e+03
87	4.00000e+02	2.50000e+03
88	4.00000e+02	2.60000e+03
89	4.00000e+02	2.70000e+03
90	4.00000e+02	2.80000e+03
91	4.00000e+02	2.90000e+03
92	4.00000e+02	3.00000e+03
93	4.00000e+02	3.10000e+03
94	4.00000e+02	3.20000e+03
95	4.00000e+02	3.30000e+03
96	4.00000e+02	3.40000e+03
97	4.00000e+02	3.50000e+03
98	4.00000e+02	3.60000e+03
99	5.00000e+02	1.50000e+03
100	5.00000e+02	1.82900e+03
101	5.00000e+02	3.10000e+03
102	6.00000e+02	4.00000e+02
103	7.00000e+02	3.00000e+02
104	7.00000e+02	6.00000e+02
105	7.00000e+02	1.50000e+03
106	7.00000e+02	1.60000e+03
107	7.00000e+02	1.80000e+03
108	7.00000e+02	2.10000e+03
109	7.00000e+02	2.40000e+03
110	7.00000e+02	2.70000e+03
111	7.00000e+02	3.00000e+03
112	7.00000e+02	3.30000e+03
113	7.00000e+02	3.60000e+03
114	8.00000e+02	3.00000e+02
115	8.00000e+02	6.00000e+02
116	8.00000e+02	1.03000e+03
117	8.00000e+02	1.50000e+03
118	8.00000e+02	1.80000e+03
119	8.00000e+02	2.10000e+03
120	8.00000e+02	2.40000e+03
121	8.00000e+02	2.60000e+03
122	8.00000e+02	2.70000e+03
123	8.00000e+02	3.00000e+03
124	8.00000e+02	3.30000e+03
125	8.00000e+02	3.60000e+03
126	9.00000e+02	3.00000e+02
127	9.00000e+02	6.00000e+02
128	9.00000e+02	1.50000e+03
129	9.00000e+02	1.80000e+03
130	9.00000e+02	2.10000e+03
131	9.00000e+02	2.40000e+03
132	9.00000e+02	2.70000e+03
133	9.00000e+02	3.00000e+03
134	9.00000e+02	3.30000e+03
135	9.00000e+02	3.60000e+03
136	1.00000e+03	3.00000e+02
137	1.00000e+03	6.00000e+02
138	1.00000e+03	1.10000e+03
139	1.00000e+03	1.50000e+03
140	1.00000e+03	1.62900e+03
141	1.00000e+03	1.80000e+03
142	1.00000e+03	2.10000e+03
143	1.00000e+03	2.40000e+03
144	1.00000e+03	2.60000e+03
145	1.00000e+03	2.70000e+03
146	1.00000e+03	3.00000e+03
147	1.00000e+03	3.30000e+03
148	1.00000e+03	3.60000e+03
149	1.10000e+03	3.00000e+02
150	1.10000e+03	6.00000e+02
151	1.10000e+03	7.00000e+02
152	1.10000e+03	9.00000e+02
153	1.10000e+03	1.50000e+03
154	1.10000e+03	1.80000e+03
155	1.10000e+03	2.10000e+03
156	1.10000e+03	2.40000e+03
157	1.10000e+03	2.70000e+03
158	1.10000e+03	3.00000e+03
159	1.10000e+03	3.30000e+03
160	1.10000e+03	3.60000e+03
161	1.20000e+03	3.00000e+02
162	1.20000e+03	6.00000e+02
163	1.20000e+03	1.50000e+03
164	1.20000e+03	1.70000e+03
165	1.20000e+03	1.80000e+03
166	1.20000e+03	2.10000e+03
167	1.20000e+03	2.40000e+03
168	1.20000e+03	2.70000e+03
169	1.20000e+03	3.00000e+03
170	1.20000e+03	3.30000e+03
171	1.20000e+03	3.60000e+03
172	1.30000e+03	3.00000e+02
173	1.30000e+03	6.00000e+02
174	1.30000e+03	7.00000e+02
175	1.30000e+03	1.13000e+03
176	1.30000e+03	1.50000e+03
177	1.30000e+03	1.80000e+03
178	1.30000e+03	2.10000e+03
179	1.30000e+03	2.20000e+03
180	1.30000e+03	2.40000e+03
181	1.30000e+03	2.70000e+03
182	1.30000e+03	3.00000e+03
183	1.30000e+03	3.30000e+03
184	1.30000e+03	3.60000e+03
185	1.40000e+03	3.00000e+02
186	1.40000e+03	6.00000e+02
187	1.40000e+03	9.30000e+02
188	1.40000e+03	1.50000e+03
189	1.40000e+03	1.80000e+03
190	1.40000e+03	2.00000e+03
191	1.40000e+03	2.10000e+03
192	1.40000e+03	2.40000e+03
193	1.40000e+03	2.50000e+03
194	1.40000e+03	2.70000e+03
195	1.40000e+03	2.82000e+03
196	1.40000e+03	2.90000e+03
197	1.40000e+03	3.00000e+03
198	1.40000e+03	3.30000e+03
199	1.40000e+03	3.60000e+03
200	1.50000e+03	1.50000e+03
201	1.50000e+03	1.80000e+03
202	1.50000e+03	1.90000e+03
203	1.50000e+03	2.10000e+03
204	1.50000e+03	2.40000e+03
205	1.50000e+03	2.70000e+03
206	1.50000e+03	2.80000e+03
207	1.50000e+03	2.86000e+03
208	1.50000e+03	3.00000e+03
209	1.50000e+03	3.30000e+03
210	1.50000e+03	3.60000e+03
211	1.60000e+03	1.10000e+03
212	1.60000e+03	1.30000e+03
213	1.60000e+03	1.50000e+03
214	1.60000e+03	1.80000e+03
215	1.60000e+03	2.10000e+03
216	1.60000e+03	2.40000e+03
217	1.60000e+03	2.70000e+03
218	1.60000e+03	3.00000e+03
219	1.60000e+03	3.30000e+03
220	1.60000e+03	3.60000e+03
221	1.70000e+03	1.20000e+03
222	1.70000e+03	1.50000e+03
223	1.70000e+03	1.80000e+03
224	1.70000e+03	2.10000e+03
225	1.70000e+03	2.40000e+03
226	1.70000e+03	3.60000e+03
227	1.80000e+03	3.00000e+02
228	1.80000e+03	6.00000e+02
229	1.80000e+03	1.23000e+03
230	1.80000e+03	1.50000e+03
231	1.80000e+03	1.80000e+03
232	1.80000e+03	2.10000e+03
233	1.80000e+03	2.40000e+03
234	1.90000e+03	3.00000e+02
235	1.90000e+03	6.00000e+02
236	1.90000e+03	3.00000e+03
237	1.90000e+03	3.52000e+03
238	2.00000e+03	3.00000e+02
239	2.00000e+03	3.70000e+02
240	2.00000e+03	6.00000e+02
241	2.00000e+03	8.00000e+02
242	2.00000e+03	9.00000e+02
243	2.00000e+03	1.00000e+03
244	2.00000e+03	1.10000e+03
245	2.00000e+03	1.20000e+03
246	2.00000e+03	1.30000e+03
247	2.00000e+03	1.40000e+03
248	2.00000e+03	1.50000e+03
249	2.00000e+03	1.60000e+03
250	2.00000e+03	1.70000e+03
251	2.00000e+03	1.80000e+03
252	2.00000e+03	1.90000e+03
253	2.00000e+03	2.00000e+03
254	2.00000e+03	2.10000e+03
255	2.00000e+03	2.20000e+03
256	2.00000e+03	2.30000e+03
257	2.00000e+03	2.40000e+03
258	2.00000e+03	2.50000e+03
259	2.00000e+03	2.60000e+03
260	2.00000e+03	2.70000e+03
261	2.00000e+03	2.80000e+03
262	2.00000e+03	2.90000e+03
263	2.00000e+03	3.00000e+03
264	2.00000e+03	3.10000e+03
265	2.00000e+03	3.50000e+03
266	2.10000e+03	3.00000e+02
267	2.10000e+03	6.00000e+02
268	2.10000e+03	3.20000e+03
269	2.20000e+03	3.00000e+02
270	2.20000e+03	4.69000e+02
271	2.20000e+03	6.00000e+02
272	2.20000e+03	3.20000e+03
273	2.30000e+03	3.00000e+02
274	2.30000e+03	6.00000e+02
275	2.30000e+03	3.40000e+03
276	2.40000e+03	3.00000e+02
277	2.40000e+03	6.00000e+02
278	2.40000e+03	2.10000e+03
279	2.50000e+03	3.00000e+02
280	2.50000e+03	8.00000e+02
281	2.60000e+03	4.00000e+02
282	2.60000e+03	5.00000e+02
283	2.60000e+03	8.00000e+02
284	2.60000e+03	9.00000e+02
285	2.60000e+03	1.00000e+03
286	2.60000e+03	1.10000e+03
287	2.60000e+03	1.20000e+03
288	2.60000e+03	1.30000e+03
289	2.60000e+03	1.40000e+03
290	2.60000e+03	1.50000e+03
291	2.60000e+03	1.60000e+03
292	2.60000e+03	1.70000e+03
293	2.60000e+03	1.80000e+03
294	2.60000e+03	1.90000e+03
295	2.60000e+03	2.00000e+03
296	2.60000e+03	2.10000e+03
297	2.60000e+03	2.20000e+03
298	2.60000e+03	2.30000e+03
299	2.60000e+03	2.40000e+03
300	2.60000e+03	2.50000e+03
301	2.60000e+03	2.60000e+03
302	2.60000e+03	2.70000e+03
303	2.60000e+03	2.80000e+03
304	2.60000e+03	2.90000e+03
305	2.60000e+03	3.00000e+03
306	2.60000e+03	3.10000e+03
307	2.60000e+03	3.40000e+03
308	2.70000e+03	7.00000e+02
309	2.70000e+03	8.00000e+02
310	2.70000e+03	9.00000e+02
311	2.70000e+03	1.00000e+03
312	2.70000e+03	1.10000e+03
313	2.70000e+03	1.20000e+03
314	2.70000e+03	1.30000e+03
315	2.70000e+03	1.40000e+03
316	2.70000e+03	1.50000e+03
317	2.70000e+03	1.60000e+03
318	2.70000e+03	1.70000e+03
319	2.70000e+03	1.80000e+03
320	2.70000e+03	1.90000e+03
321	2.70000e+03	2.00000e+03
322	2.70000e+03	2.10000e+03
323	2.70000e+03	2.20000e+03
324	2.70000e+03	2.30000e+03
325	2.70000e+03	2.50000e+03
326	2.70000e+03	2.60000e+03
327	2.70000e+03	2.70000e+03
328	2.70000e+03	2.80000e+03
329	2.70000e+03	2.90000e+03
330	2.70000e+03	3.00000e+03
331	2.70000e+03	3.10000e+03
332	2.70000e+03	3.20000e+03
333	2.70000e+03	3.30000e+03
334	2.70000e+03	3.40000e+03
335	2.70000e+03	3.50000e+03
336	2.70000e+03	3.60000e+03
337	2.70000e+03	3.70000e+03
338	2.70000e+03	3.80000e+03
339	2.80000e+03	9.00000e+02
340	2.80000e+03	1.13000e+03
341	2.90000e+03	4.00000e+02
342	2.90000e+03	5.00000e+02
343	2.90000e+03	1.40000e+03
344	2.90000e+03	2.40000e+03
345	2.90000e+03	3.00000e+03
346	3.00000e+03	7.00000e+02
347	3.00000e+03	8.00000e+02
348	3.00000e+03	9.00000e+02
349	3.00000e+03	1.00000e+03
350	3.00000e+03	1.10000e+03
351	3.00000e+03	1.20000e+03
352	3.00000e+03	1.30000e+03
353	3.00000e+03	1.50000e+03
354	3.00000e+03	1.60000e+03
355	3.00000e+03	1.70000e+03
356	3.00000e+03	1.80000e+03
357	3.00000e+03	1.90000e+03
358	3.00000e+03	2.00000e+03
359	3.00000e+03	2.10000e+03
360	3.00000e+03	2.20000e+03
361	3.00000e+03	2.30000e+03
362	3.00000e+03	2.50000e+03
363	3.00000e+03	2.60000e+03
364	3.00000e+03	2.70000e+03
365	3.00000e+03	2.80000e+03
366	3.00000e+03	2.90000e+03
367	3.00000e+03	3.00000e+03
368	3.00000e+03	3.10000e+03
369	3.00000e+03	3.20000e+03
370	3.00000e+03	3.30000e+03
371	3.00000e+03	3.40000e+03
372	3.00000e+03	3.50000e+03
373	3.00000e+03	3.60000e+03
374	3.00000e+03	3.70000e+03
375	3.00000e+03	3.80000e+03
376	1.50000e+02	3.50000e+03
377	1.50000e+02	3.55000e+03
378	4.69000e+02	2.55000e+03
379	4.69000e+02	3.35000e+03
380	4.69000e+02	3.45000e+03
381	5.40000e+02	2.33000e+03
382	5.40000e+02	2.43000e+03
383	6.20000e+02	3.65000e+03
384	6.20000e+02	3.70900e+03
385	7.50000e+02	2.55000e+03
386	8.50000e+02	5.20000e+02
387	8.50000e+02	7.00000e+02
388	8.50000e+02	2.28000e+03
389	9.39000e+02	7.40000e+02
390	9.50000e+02	2.22000e+03
391	9.10000e+02	2.60000e+03
392	1.05000e+03	1.05000e+03
393	1.15000e+03	1.35000e+03
394	1.17000e+03	2.28000e+03
395	1.22000e+03	2.21000e+03
396	1.35000e+03	7.50000e+02
397	1.35000e+03	1.70000e+03
398	1.35000e+03	2.14000e+03
399	1.45000e+03	7.70000e+02
400	1.55000e+03	3.00000e+02
401	1.55000e+03	5.00000e+02
402	1.55000e+03	1.85000e+03
403	1.65000e+03	1.05000e+03
404	1.69000e+03	2.68000e+03
405	1.71000e+03	3.10000e+02
406	1.71000e+03	5.10000e+02
407	1.75000e+03	7.50000e+02
408	1.79000e+03	2.58000e+03
409	1.72000e+03	2.61000e+03
410	1.79000e+03	3.33000e+03
411	1.72000e+03	3.40900e+03
412	1.82900e+03	2.70000e+03
413	1.82900e+03	2.80000e+03
414	1.82900e+03	3.45000e+03
415	2.06000e+03	1.65000e+03
416	2.05000e+03	3.15000e+03
417	2.17000e+03	1.90000e+03
418	2.11000e+03	2.00000e+03
419	2.12000e+03	2.75000e+03
420	2.15000e+03	3.25000e+03
421	2.29000e+03	1.40000e+03
422	2.22000e+03	2.82000e+03
423	2.28000e+03	3.25000e+03
424	2.39000e+03	1.30000e+03
425	2.32000e+03	1.50000e+03
426	2.45000e+03	7.10000e+02
427	2.62000e+03	3.65000e+03
428	2.75000e+03	5.20000e+02
429	2.76000e+03	2.36000e+03
430	2.85000e+03	2.20000e+03
431	2.85000e+03	2.70000e+03
432	2.85000e+03	3.35000e+03
433	2.93000e+03	9.50000e+02
434	2.95000e+03	1.75000e+03
435	2.95000e+03	2.05000e+03
436	5.20000e+02	3.20000e+03
437	2.30000e+03	3.50000e+03
438	2.32000e+03	3.15000e+03
439	5.30000e+02	2.10000e+03
440	2.55000e+03	7.10000e+02
441	7.50000e+02	4.90000e+02
442	0.00000e+00	0.00000e+00
ITEMS SECTION	(INDEX, PROFIT, WEIGHT, ASSIGNED NODE NUMBER): 
1	1	1008	2
2	896	1006	3
3	367	1006	4
4	690	1001	5
5	613	1006	6
6	874	1001	7
7	122	1009	8
8	486	1004	9
9	823	1001	10
10	463	1003	11
11	589	1004	12
12	325	1009	13
13	1000	1006	14
14	776	1005	15
15	123	1000	16
16	356	1000	17
17	305	1007	18
18	47	1006	19
19	645	1008	20
20	139	1000	21
21	247	1009	22
22	211	1009	23
23	100	1007	24
24	627	1004	25
25	760	1002	26
26	776	1006	27
27	475	1006	28
28	937	1007	29
29	101	1008	30
30	281	1008	31
31	751	1008	32
32	530	1006	33
33	240	1004	34
34	248	1005	35
35	768	1000	36
36	31	1003	37
37	613	1007	38
38	881	1004	39
39	367	1007	40
40	712	1000	41
41	410	1007	42
42	157	1009	43
43	824	1000	44
44	242	1000	45
45	472	1005	46
46	722	1006	47
47	775	1001	48
48	371	1006	49
49	337	1003	50
50	885	1008	51
51	204	1008	52
52	594	1008	53
53	226	1006	54
54	226	1002	55
55	921	1000	56
56	537	1006	57
57	112	1001	58
58	959	1005	59
59	392	1001	60
60	709	1006	61
61	940	1002	62
62	943	1006	63
63	79	1001	64
64	922	1004	65
65	361	1000	66
66	947	1003	67
67	861	1009	68
68	937	1009	69
69	754	1005	70
70	872	1000	71
71	636	1001	72
72	459	1009	73
73	390	1001	74
74	141	1005	75
75	111	1009	76
76	588	1003	77
77	6	1001	78
78	155	1009	79
79	723	1008	80
80	723	1009	81
81	667	1004	82
82	829	1007	83
83	487	1004	84
84	590	1008	85
85	370	1006	86
86	823	1007	87
87	173	1002	88
88	56	1000	89
89	977	1005	90
90	681	1005	91
91	689	1007	92
92	933	1005	93
93	809	1002	94
94	587	1002	95
95	686	1003	96
96	466	1000	97
97	356	1004	98
98	784	1001	99
99	862	1009	100
100	223	1009	101
101	541	1006	102
102	61	1002	103
103	416	1001	104
104	62	1001	105
105	205	1002	106
106	152	1008	107
107	913	1009	108
108	267	1006	109
109	249	1003	110
110	187	1009	111
111	174	1003	112
112	939	1001	113
113	519	1004	114
114	56	1008	115
115	381	1008	116
116	551	1004	117
117	128	1006	118
118	812	1009	119
119	753	1008	120
120	544	1003	121
121	684	1005	122
122	830	1004	123
123	725	1009	124
124	330	1003	125
125	115	1000	126
126	38	1002	127
127	445	1005	128
128	619	1009	129
129	648	1000	130
130	896	1005	131
131	658	1006	132
132	306	1005	133
133	806	1008	134
134	800	1002	135
135	612	1002	136
136	354	1000	137
137	300	1008	138
138	174	1008	139
139	751	1002	140
140	126	1001	141
141	603	1001	142
142	665	1000	143
143	209	1006	144
144	308	1000	145
145	308	1009	146
146	677	1009	147
147	863	1005	148
148	292	1001	149
149	444	1007	150
150	295	1000	151
151	413	1000	152
152	72	1007	153
153	321	1003	154
154	981	1003	155
155	797	1004	156
156	507	1008	157
157	715	1001	158
158	512	1007	159
159	892	1004	160
160	76	1004	161
161	22	1008	162
162	643	1003	163
163	866	1004	164
164	74	1004	165
165	508	1005	166
166	243	1000	167
167	776	1006	168
168	326	1008	169
169	694	1005	170
170	662	1008	171
171	17	1008	172
172	654	1007	173
173	129	1006	174
174	662	1000	175
175	123	1007	176
176	182	1008	177
177	554	1002	178
178	421	1002	179
179	685	1009	180
180	470	1009	181
181	77	1006	182
182	264	1001	183
183	624	1006	184
184	961	1004	185
185	55	1001	186
186	254	1001	187
187	880	1009	188
188	921	1009	189
189	809	1009	190
190	680	1007	191
191	554	1008	192
192	62	1006	193
193	573	1001	194
194	568	1003	195
195	37	1004	196
196	910	1002	197
197	632	1007	198
198	211	1000	199
199	67	1005	200
200	763	1003	201
201	568	1007	202
202	681	1001	203
203	814	1007	204
204	514	1006	205
205	326	1001	206
206	41	1007	207
207	909	1001	208
208	192	1005	209
209	59	1001	210
210	352	1001	211
211	678	1006	212
212	885	1006	213
213	596	1007	214
214	400	1001	215
215	411	1003	216
216	746	1005	217
217	535	1006	218
218	82	1009	219
219	399	1008	220
220	412	1009	221
221	636	1002	222
222	983	1004	223
223	360	1000	224
224	120	1005	225
225	870	1007	226
226	808	1001	227
227	4	1001	228
228	391	1007	229
229	810	1005	230
230	819	1002	231
231	958	1006	232
232	209	1006	233
233	717	1000	234
234	359	1002	235
235	895	1006	236
236	419	1006	237
237	504	1003	238
238	588	1007	239
239	719	1008	240
240	323	1000	241
241	341	1006	242
242	965	1000	243
243	859	1008	244
244	456	1000	245
245	760	1001	246
246	135	1002	247
247	390	1009	248
248	780	1008	249
249	496	1005	250
250	1	1005	251
251	906	1000	252
252	171	1005	253
253	437	1004	254
254	164	1003	255
255	142	1007	256
256	876	1000	257
257	265	1008	258
258	762	1001	259
259	319	1005	260
260	780	1002	261
261	41	1001	262
262	33	1006	263
263	720	1001	264
264	887	1003	265
265	907	1005	266
266	551	1003	267
267	732	1009	268
268	969	1008	269
269	679	1004	270
270	228	1001	271
271	168	1001	272
272	654	1009	273
273	48	1009	274
274	549	1000	275
275	260	1000	276
276	112	1005	277
277	450	1000	278
278	925	1005	279
279	240	1000	280
280	375	1009	281
281	875	1004	282
282	299	1006	283
283	969	1009	284
284	215	1005	285
285	435	1000	286
286	648	1002	287
287	515	1004	288
288	351	1001	289
289	582	1001	290
290	32	1000	291
291	901	1001	292
292	902	1007	293
293	494	1001	294
294	766	1009	295
295	602	1006	296
296	494	1008	297
297	147	1000	298
298	418	1000	299
299	628	1006	300
300	219	1006	301
301	837	1001	302
302	340	1005	303
303	441	1002	304
304	315	1006	305
305	109	1000	306
306	343	1007	307
307	616	1004	308
308	532	1008	309
309	522	1007	310
310	897	1003	311
311	514	1008	312
312	986	1002	313
313	888	1001	314
314	759	1005	315
315	323	1000	316
316	176	1001	317
317	919	1002	318
318	67	1007	319
319	503	1009	320
320	556	1009	321
321	716	1004	322
322	319	1002	323
323	471	1009	324
324	517	1008	325
325	105	1008	326
326	153	1007	327
327	140	1001	328
328	886	1004	329
329	692	1003	330
330	319	1009	331
331	560	1000	332
332	642	1000	333
333	696	1003	334
334	258	1007	335
335	250	1008	336
336	639	1008	337
337	372	1004	338
338	132	1001	339
339	856	1002	340
340	453	1007	341
341	503	1008	342
342	539	1005	343
343	819	1003	344
344	126	1002	345
345	430	1006	346
346	598	1001	347
347	696	1003	348
348	597	1007	349
349	697	1006	350
350	52	1008	351
351	652	1009	352
352	625	1004	353
353	91	1007	354
354	546	1005	355
355	317	1003	356
356	313	1005	357
357	89	1000	358
358	283	1006	359
359	917	1000	360
360	806	1009	361
361	912	1001	362
362	511	1002	363
363	168	1003	364
364	758	1000	365
365	392	1003	366
366	646	1007	367
367	114	1008	368
368	5	1007	369
369	989	1005	370
370	228	1001	371
371	131	1008	372
372	699	1007	373
373	386	1000	374
374	229	1008	375
375	621	1001	376
376	371	1009	377
377	574	1006	378
378	495	1007	379
379	674	1004	380
380	255	1001	381
381	352	1001	382
382	588	1007	383
383	176	1008	384
384	935	1006	385
385	325	1004	386
386	167	1002	387
387	550	1007	388
388	457	1006	389
389	478	1005	390
390	892	1005	391
391	942	1008	392
392	991	1007	393
393	988	1006	394
394	866	1009	395
395	123	1005	396
396	86	1008	397
397	70	1000	398
398	186	1006	399
399	314	1005	400
400	163	1007	401
401	119	1002	402
402	774	1005	403
403	74	1002	404
404	661	1004	405
405	386	1002	406
406	741	1002	407
407	541	1007	408
408	152	1009	409
409	143	1006	410
410	131	1009	411
411	47	1007	412
412	574	1004	413
413	229	1005	414
414	275	1005	415
415	787	1005	416
416	661	1007	417
417	320	1001	418
418	815	1001	419
419	699	1002	420
420	709	1006	421
421	458	1003	422
422	323	1004	423
423	286	1009	424
424	721	1000	425
425	907	1004	426
426	743	1007	427
427	185	1004	428
428	843	1007	429
429	794	1001	430
430	524	1002	431
431	233	1005	432
432	841	1007	433
433	491	1009	434
434	427	1009	435
435	893	1001	436
436	396	1001	437
437	25	1003	438
438	547	1006	439
439	638	1009	440
440	590	1003	441
441	90	1008	442
